(declare-datatype Nat ((zero) (succ (p Nat))))
(declare-fun plus (Nat Nat) Nat)
(declare-fun times (Nat Nat) Nat)
(declare-fun op (Nat Nat Nat Nat) Nat)
(assert (forall ((y Nat)) (= (plus zero y) y)))
(assert
  (forall ((y Nat) (z Nat)) (= (plus (succ z) y) (succ (plus z y)))))
(assert (forall ((y Nat)) (= (times zero y) zero)))
(assert
  (forall ((y Nat) (z Nat))
    (= (times (succ z) y) (plus y (times z y)))))
(assert (forall ((y Nat) (x2 Nat)) (= (op zero y zero x2) x2)))
(assert
  (forall ((y Nat) (x2 Nat) (x4 Nat))
    (= (op (succ x4) y zero x2) (op x4 y y x2))))
(assert
  (forall ((x Nat) (y Nat) (x2 Nat) (x3 Nat))
    (= (op x y (succ x3) x2) (op x y x3 (succ x2)))))
(assert
  (not
    (forall ((a Nat) (b Nat) (c Nat) (d Nat))
      (= (op a b c d) (plus (plus (times a b) c) d)))))
(check-sat)
(assert
  (forall ((x Nat) (y Nat) (z Nat))
    (= (times x (times y z)) (times (times x y) z))))
(assert
  (forall ((x Nat) (y Nat) (z Nat))
    (= (plus x (plus y z)) (plus (plus x y) z))))
(assert (forall ((x Nat) (y Nat)) (= (times x y) (times y x))))
(assert (forall ((x Nat) (y Nat)) (= (plus x y) (plus y x))))
(assert
  (forall ((x Nat) (y Nat) (z Nat))
    (= (times x (plus y z)) (plus (times x y) (times x z)))))
(assert
  (forall ((x Nat) (y Nat) (z Nat))
    (= (times (plus x y) z) (plus (times x z) (times y z)))))
(assert (forall ((x Nat)) (= (times x (succ zero)) x)))
(assert (forall ((x Nat)) (= (times (succ zero) x) x)))
(assert (forall ((x Nat)) (= (plus x zero) x)))
(assert (forall ((x Nat)) (= (plus zero x) x)))
(assert (forall ((x Nat)) (= (times x zero) zero)))
(assert (forall ((x Nat)) (= (times zero x) zero)))
